! B3LYP D3BJ 6-311++G(d,p) Opt TightSCF RIJCOSX

%maxcore 5000

%pal
nprocs 32
end

* xyz 0 1
O        0.0034000000      0.9946000000     -1.2588000000                 
H        2.7350000000      0.7704000000     -0.0009000000                 
H       -2.7412000000      0.7689000000     -0.0006000000                 
S       -0.0078000000      0.2632000000     -0.0002000000                 
C        2.5639000000     -0.3006000000      0.0003000000                 
C       -2.5648000000     -0.3013000000      0.0004000000                 
C        1.3388000000     -0.8291000000      0.0009000000                 
H        3.4348000000     -0.9475000000      0.0010000000                 
C       -1.3373000000     -0.8247000000      0.0010000000                 
H       -3.4329000000     -0.9520000000      0.0011000000                 
H        1.1912000000     -1.9027000000      0.0020000000                 
H       -1.1910000000     -1.8986000000      0.0020000000                 
O        0.0037000000      0.9980000000      1.2564000000                 
*
