! B3LYP D3BJ 6-311++G(d,p) Opt TightSCF RIJCOSX

%maxcore 5000

%pal
nprocs 32
end

* xyz 0 1
  F          -1.89301596075366      0.66597098726226     -0.69135489914406
  O           0.04939793642097      0.91722464588469      0.44009556496219
  O           0.55763946449402     -1.17045043524101     -0.15539764768855
  O           2.16087405551391      0.41999520751740     -0.21533050767150
  C          -1.17984673250564      0.25605579222863      0.41492408780719
  C          -0.80120895807472     -1.21593033369283      0.28833194020295
  C           1.04709495587539      0.08120316204617     -0.00956435859207
  H          -1.75876439456511      0.52791078852933      1.29500878121697
  H          -0.85040051995893     -1.73773395933129      1.24482497526557
  H          -1.40846984644623     -1.72524585520334     -0.45623793635869
*
