! B3LYP D3BJ 6-311++G(d,p) Opt TightSCF RIJCOSX

%maxcore 5000

%pal
nprocs 32
end

* xyz 0 1
  O           0.66671281926226     -0.45618688336205      0.00001255637506
  O          -1.47110618959181     -0.78363688257788     -0.00000911807057
  O          -0.70488599235566      1.34668851841015     -0.00099430798730
  C           1.81757936273312      0.41856845003031     -0.00025685170636
  C           3.04895990980692     -0.45575570472474     -0.00018024660445
  C          -0.51900529414973      0.15597209229829     -0.00040385635853
  C          -2.81583251558254     -0.28263950631106     -0.00038891295613
  H           1.76931205860319      1.05872836940733     -0.88234308963998
  H           1.76949686664536      1.05903143690845      0.88162474357657
  H           3.94247668137115      0.17116786507242      0.00021601418870
  H           3.07463157467458     -1.09288636044844      0.88472639115064
  H           3.07510660623349     -1.09259206688974     -0.88527606544932
  H          -2.99838909101577      0.32216702766417      0.88726922644055
  H          -3.45168872100960     -1.16355844698659      0.00007986510517
  H          -2.99826807562496      0.32113209150938     -0.88877634806403
*
