! B3LYP D3BJ 6-311++G(d,p) Opt TightSCF RIJCOSX

%maxcore 5000

%pal
nprocs 32
end

* xyz 0 1
  O          -1.08130786343213     -0.70373951060664     -0.00030605712622
  O           1.08128976916797     -0.70376177376485     -0.00029616499631
  O           0.00001091842233      1.28592197684018     -0.00054017083633
  C          -0.00000125115813      0.08109101981085     -0.00040864169728
  C          -2.33589781354266     -0.00647871676867     -0.00037644839086
  C           2.33589665542618     -0.00652973012283     -0.00038418276537
  H          -2.42567734958824      0.61800568878339      0.88783302445335
  H          -3.09639630355221     -0.78227363283580     -0.00034819352231
  H          -2.42563737879276      0.61790406689790     -0.88866059368086
  H           3.09637619689049     -0.78234346644563     -0.00031925927951
  H           2.42568665534467      0.61798958064562      0.88780006573640
  H           2.42565776481448      0.61781449756647     -0.88869337789470
*
