! Opt B3LYP def2-TZVP TightSCF TightOpt D3BJ RIJCOSX

%maxcore 5000

%pal
nprocs 32
end

* xyz 0 1
O          0.68030       -0.45370        0.00050
O         -1.49990       -0.77980        0.00030
O         -0.70930        1.38540        0.00010
C          1.82450        0.40650       -0.00030
C          3.07860       -0.44140       -0.00030
C         -0.52830        0.17520        0.00060
C         -2.84580       -0.29220       -0.00070
H          1.80520        1.03900       -0.89490
H          1.80570        1.03980        0.89370
H          3.97460        0.18570       -0.00090
H          3.10340       -1.09290        0.87950
H          3.10290       -1.09360       -0.87950
H         -3.03430        0.30100        0.89920
H         -3.51930       -1.15330       -0.00080
H         -3.03320        0.30050       -0.90120
*
